data/results/2026_03_23_15_57_31_set_exp_3_exp_3_n011_c003_g005_max.sol
# Objective value = 9
c_n0n1n5 3
c_n0n1n10 3
c_n2n7n9 3
y_n0n1 0
y_n1n2 0
y_n0n2 0
y_n1n3 1
y_n0n3 1
y_n1n4 1
y_n0n4 1
y_n1n5 1
y_n0n5 1
y_n1n6 0
y_n0n6 0
y_n1n7 0
y_n0n7 0
y_n1n8 0
y_n0n8 0
y_n1n9 0
y_n0n9 0
y_n1n10 0
y_n0n10 0
y_n2n3 1
y_n2n4 1
y_n2n5 1
y_n2n6 1
y_n2n7 0
y_n2n8 0
y_n2n9 1
y_n2n10 1
y_n3n4 0
y_n3n5 0
y_n3n6 0
y_n3n7 0
y_n3n8 0
y_n3n9 0
y_n3n10 0
y_n4n5 0
y_n4n6 0
y_n4n7 0
y_n4n8 0
y_n4n9 0
y_n4n10 0
y_n5n6 0
y_n5n7 0
y_n5n8 0
y_n5n9 0
y_n5n10 0
y_n6n7 0
y_n6n8 0
y_n6n9 0
y_n6n10 1
y_n7n8 0
y_n7n9 1
y_n7n10 1
y_n8n9 1
y_n8n10 1
y_n9n10 1
pos_n0 7
pos_n1 6
pos_n2 2
pos_n3 10
pos_n4 9
pos_n5 8
pos_n6 4
pos_n7 1
pos_n8 0
pos_n9 3
pos_n10 5
z_n5n10 0
z_n1n10 1
z_n1n5 0
z_n7n10 0
z_n0n7 0
z_n5n7 0
z_n0n10 0
z_n0n5 1
z_n3n9 0
z_n3n7 0
z_n7n9 0
z_n2n4 0
z_n3n8 0
z_n7n8 0
z_n0n6 0
z_n0n1 1
z_n1n6 0
z_n5n8 0
z_n1n2 0
z_n1n9 0
z_n1n4 0
z_n2n9 1
z_n4n9 0
z_n4n6 0
z_n2n7 1
